JulietBench/Juliet_Based_Patch_Bench/linux/CWE-189-Numeric-Errors/CVE_2010_4164_5ef41308f94dcbb3b7afc56cdef1c2ba53fa5d2f/solverx25_parse_facilities_Snippet_patch1.smt2
; benchmark generated from python API
(set-info :status unknown)
(declare-fun R () (_ BitVec 32))
(declare-fun rsi () (_ BitVec 64))
(declare-fun rdi () (_ BitVec 64))
(assert
 (let (($x250 (= (_ bv0 32) R)))
 (let ((?x12 ((_ extract 7 0) rsi)))
 (let ((?x39 (bvand ?x12 (_ bv192 8))))
 (let (($x20 (= (_ bv128 8) ?x39)))
 (let ((?x6 ((_ extract 31 0) rdi)))
 (let (($x129 (bvule ?x6 (_ bv3 32))))
 (let (($x235 (and $x129 $x20 $x250)))
 (let (($x15 (= R ?x6)))
 (let (($x74 (and (distinct (_ bv128 8) ?x39) true)))
 (let ((?x92 (concat (concat (_ bv0 24) ((_ extract 7 6) rsi)) (_ bv0 6))))
 (let (($x171 (bvslt (_ bv128 32) ?x92)))
 (let (($x172 (and $x171 $x74 $x15)))
 (let ((?x91 (bvadd (_ bv4294967292 32) ?x6)))
 (let (($x169 (= R ?x91)))
 (let (($x146 (bvugt ?x6 (_ bv3 32))))
 (let (($x237 (and $x146 $x20 $x169)))
 (let (($x95 (bvsge (_ bv128 32) ?x92)))
 (let (($x85 (= (_ bv0 32) ?x92)))
 (let (($x121 (bvule ?x6 (_ bv1 32))))
 (let (($x236 (and $x121 $x85 $x95 $x74 $x250)))
 (let ((?x178 (bvadd (_ bv4294967294 32) ?x6)))
 (let (($x123 (= R ?x178)))
 (let (($x221 (bvugt ?x6 (_ bv1 32))))
 (let (($x252 (and $x221 $x85 $x95 $x74 $x123)))
 (let (($x82 (and (distinct (_ bv0 32) ?x92) true)))
 (let (($x176 (= (_ bv64 32) ?x92)))
 (let (($x246 (bvule ?x6 (_ bv2 32))))
 (let (($x251 (and $x246 $x176 $x82 $x95 $x74 $x250)))
 (let ((?x201 (bvadd (_ bv4294967293 32) ?x6)))
 (let (($x127 (= R ?x201)))
 (let (($x254 (bvugt ?x6 (_ bv2 32))))
 (let (($x248 (and $x254 $x176 $x82 $x95 $x74 $x127)))
 (let (($x238 (or $x248 $x251 $x252 $x236 $x237 $x172 $x235)))
 (let (($x260 (not $x238)))
 (let (($x173 (and $x20 $x169)))
 (let (($x155 (and $x85 $x95 $x74 $x123)))
 (let (($x122 (and $x176 $x82 $x95 $x74 $x127)))
 (let (($x247 (or $x122 $x155 $x172 $x173)))
 (let (($x259 (not $x247)))
 (let (($x261 (and $x259 $x260)))
 (let (($x258 (and $x247 $x238)))
 (let (($x262 (or $x258 $x261)))
 (not $x262))))))))))))))))))))))))))))))))))))))))))))
(check-sat)
